s td 52 33 114
b 1 1 2 3 11 12 18 20 27 29 32 35 37 42 49 50 51 55 59 67 69 74 80 92 95 98 99 101 102 105 106 109 113
b 2 2 3 4 18 19 20 27 29 34 35 37 49 50 51 53 59 67 73 74 80 83 92 95 98 101 102 105 109 110
b 3 2 3 4 14 18 19 20 27 29 33 34 37 40 50 51 53 62 67 73 74 80 83 91 92 95 98 101 102 105 107 109 110 111
b 4 2 3 4 14 18 19 27 29 33 34 37 40 50 53 62 67 73 80 83 91 92 95 97 98 101 102 105 107 109 110 111
b 5 2 3 4 14 18 27 29 33 34 37 40 50 53 62 65 67 73 80 83 91 92 95 97 98 101 102 105 107 109 110 111
b 6 2 3 4 14 18 27 29 33 34 37 40 50 52 53 62 65 67 73 80 83 91 92 95 97 98 101 102 105 107 109 111
b 7 2 3 4 14 18 27 29 33 34 37 40 48 50 52 62 65 67 73 80 83 91 92 95 97 98 101 102 105 107 109 111
b 8 2 3 4 14 18 27 29 33 34 37 38 40 48 50 52 62 65 67 80 83 91 92 95 97 98 101 102 105 107 109 111
b 9 2 3 4 14 18 25 27 29 33 37 38 40 48 50 52 62 65 67 80 83 91 92 95 97 98 101 102 105 107 109 111
b 10 2 3 4 14 18 22 25 27 29 33 37 38 40 48 50 52 62 65 67 80 91 92 95 97 98 101 102 105 107 109 111
b 11 2 3 14 18 22 25 29 33 37 38 40 48 50 52 62 65 88 91 92 95 97 98 101 102 105 107 109 111
b 12 2 3 14 18 22 25 33 38 40 48 50 52 62 65 88 89 91 92 95 97 98 101 102 107 109 111
b 13 2 3 9 14 18 25 33 38 40 48 50 52 62 65 88 89 92 95 97 98 101 102 107 109 111
b 14 2 3 9 14 18 25 38 40 48 50 62 65 78 88 89 92 95 97 98 101 102 107 109 111
b 15 2 3 9 14 18 25 30 38 40 48 50 62 78 88 89 92 95 97 98 101 102 107 109
b 16 2 3 9 14 18 30 38 40 48 50 62 78 87 88 89 92 95 97 98 101 102 109
b 17 2 3 9 14 18 30 48 50 56 62 78 87 88 89 92 95 97 98 101 102 109
b 18 2 3 8 9 14 18 30 48 50 56 78 87 88 89 92 95 98 101 102 109
b 19 2 3 8 9 18 21 30 50 56 78 87 88 89 92 95 98 101 102
b 20 4 14 18 19 20 27 29 33 34 37 40 50 51 53 57 62 67 73 74 80 82 83 91 92 95 98 101 102 107 110 111
b 21 4 14 18 19 20 27 31 33 34 37 40 50 51 53 57 62 67 73 74 80 82 83 91 92 95 101 102 107 110 111
b 22 4 14 18 19 20 31 33 34 37 40 50 51 53 62 70 73 74 82 83 91 92 95 101 102 107 110 111
b 23 1 2 3 11 12 18 27 29 32 35 37 42 49 50 55 59 67 69 75 77 80 92 95 98 99 101 102 105 106 113
b 24 1 2 3 6 11 12 18 27 29 32 35 37 42 50 55 67 69 75 77 80 92 94 95 98 99 101 102 106 113
b 25 1 2 3 5 6 11 12 18 29 32 37 42 50 55 67 69 75 77 80 92 94 95 98 99 101 102 106 113
b 26 1 5 6 11 12 18 29 32 37 42 50 55 67 69 75 77 80 92 94 95 98 99 101 102 106 112 113
b 27 1 5 6 11 12 18 23 29 32 37 42 50 55 67 69 75 77 80 92 94 95 98 101 102 112 113
b 28 1 5 6 11 12 18 23 29 32 37 42 50 55 67 69 75 76 77 80 92 94 95 98 101 112 113
b 29 1 5 6 11 12 15 18 23 29 32 37 42 50 55 67 69 75 76 77 80 92 94 98 101 112 113
b 30 5 6 42 66 67 79 80 92 101 113
b 31 1 2 3 7 11 12 13 20 32 42 45 47 50 51 55 63 69 72 74 81 86 90 92 95 99 101 102 103 106 108 109 113 114
b 32 1 2 3 7 10 11 12 13 20 26 41 42 45 46 47 50 63 69 72 81 85 86 90 92 95 99 101 102 103 108 109 113 114
b 33 1 2 3 7 10 11 12 13 20 26 41 45 46 47 50 63 64 69 72 81 85 86 90 92 95 101 102 103 108 109 114
b 34 1 2 3 7 10 11 12 13 20 26 41 43 45 46 47 50 63 64 69 72 81 85 86 90 92 95 101 102 108 109 114
b 35 1 2 3 7 10 11 12 13 20 26 36 41 43 45 46 47 50 63 64 69 72 81 85 86 90 92 95 101 102 108 109
b 36 1 2 3 7 10 11 12 13 17 20 26 36 41 43 45 46 47 50 63 64 69 72 85 86 90 92 95 101 102 108 109
b 37 1 2 3 7 10 11 12 13 17 20 26 36 41 43 44 45 46 47 50 63 64 69 72 85 90 92 95 101 102 108 109
b 38 1 2 3 7 10 17 26 36 41 43 44 47 50 58 63 64 69 72 85 92 95 101 102 108 109
b 39 1 2 3 10 17 24 26 36 41 43 44 47 50 58 63 64 69 72 85 92 95 101 102 109
b 40 1 2 3 10 24 26 36 43 44 47 50 58 63 64 69 72 85 92 95 96 101 102 109
b 41 1 2 3 16 24 26 36 43 44 47 50 58 63 69 72 85 92 95 96 101 102 109
b 42 1 2 3 16 24 43 44 47 50 58 61 63 69 72 85 92 95 96 101 102 109
b 43 1 2 3 16 24 43 44 50 58 61 69 72 84 85 92 95 96 101 102 109
b 44 1 2 3 16 24 44 50 58 61 69 71 72 84 92 95 96 101 102
b 45 2 3 7 11 12 13 17 20 36 39 43 44 45 46 50 63 64 72 90 92 95 101 109
b 46 11 12 13 42 45 50 51 54 74 92 95 99 101 113
b 47 12 28 42 45 50 51 54 74 92 95 99 101 113
b 48 2 3 7 13 32 42 45 47 50 51 55 63 72 74 81 86 90 92 95 101 103 104 106 108 113 114
b 49 2 3 7 13 32 42 45 50 51 55 68 72 74 81 86 90 92 95 101 103 104 106 108 113 114
b 50 7 13 32 42 45 50 51 55 68 74 81 86 90 92 93 95 101 103 104 106 108 113 114
b 51 32 42 50 51 55 68 74 81 86 90 92 93 95 100 101 103 104 113 114
b 52 32 42 50 51 55 60 68 74 81 86 90 92 93 95 100 101 103 104 114
1 2
1 23
1 31
2 3
3 4
3 20
4 5
5 6
6 7
7 8
8 9
9 10
10 11
11 12
12 13
13 14
14 15
15 16
16 17
17 18
18 19
20 21
21 22
23 24
24 25
25 26
25 30
26 27
27 28
28 29
31 32
31 46
31 48
32 33
33 34
34 35
35 36
36 37
37 38
37 45
38 39
39 40
40 41
41 42
42 43
43 44
46 47
48 49
49 50
50 51
51 52
